(set-logic QF_S)
(declare-fun T_5 () Bool)
(declare-fun T_SELECT_1 () Bool)
(declare-fun PCTEMP_LHS_1 () Int)
(declare-fun T0_5 () String)
(declare-fun T1_5 () String)
(declare-fun var_0xINPUT_127526 () String)
(assert (= var_0xINPUT_127526 (str.++ T0_5 T1_5)))
(assert (not (str.in.re T1_5 (str.to.re "GASO="))))
(assert T_5)
(assert (= T_5 (< (- 1) PCTEMP_LHS_1)))
(assert (= PCTEMP_LHS_1 (- 1)))
(assert (= T_SELECT_1 (not (= PCTEMP_LHS_1 (- 1)))))
(assert (= 0 (str.len T0_5))) ; len 0
(assert (not T_SELECT_1))
(check-sat)
